# Objective value = 49
WA1n 0
WA1p 0
WA2n 0
WA2p 1
WB1n 0
WB1p 0
WB2n 0
WB2p 1
WC1n 1
WC1p 0
WD1n 1
WD1p 0
WE1n 0
WE1p 1
WF1n 0
WF1p 1
WG1n 0
WG1p 1
WH1n 0
WH1p 1
WI1n 6
WI1p 0
WI2n 1
WI2p 0
WJ1n 6
WJ1p 0
WJ2n 1
WJ2p 0
WK1n 6
WK1p 0
WK2n 1
WK2p 0
WL1n 0
WL1p 6
WL2n 0
WL2p 1
WT1n 0
WT1p 5
WT2n 0
WT2p 1
5 7
a 0
b 1
c 0
d 1
e 0
f 0
g 1
h 1
i 1
j 1
k 0
l 0
m 0
n 0
o 0
p 0
q 1
r 1
s 1
t 1
